Si2                                     
   1.00000000000000     
     3.3481326209227009    0.0000000000000000    1.9330449975355266
     1.1160442069742338    3.1566509584275133    1.9330449975355264
     0.0000000000000000   -0.0000000000000000    3.8660899950710528
   Si
     2
Direct
  0.8750000000000000  0.8750000000000000  0.8750000000000000
  0.1250000000000000  0.1250000000000000  0.1250000000000000
 
  0.00000000E+00  0.00000000E+00  0.00000000E+00
  0.00000000E+00  0.00000000E+00  0.00000000E+00
