ISTART=0
ISMEAR = 1
SIGMA = 0.2
ENCUT = 500
ISPIN=2 
IBRION =2
NSW =300
ISIF=3
#ICHARG = 11 
EDIFF = 0.1E-05
EDIFFG = -0.0001 
LORBIT = 11
MAGMOM = 3*4 1*-4
