k-points
 0
Monkhorst Pack
 8 8 4
 0  0  0
