System=bulk_NiO
ISTART=0
ICHARG=2
ISMEAR =0
SIGMA = 0.05
ENCUT= 400
#ISIF=3
IBRION =-1
ISPIN=2
MAGMOM= 3 -3 -3 3 -3 3 3 -3 -3 3 3 -3 3 -3 -3 3 -3 3 3 -3 3 -3 -3 3 -3 3 3 -3 3 -3 -3 3 32*0
NSW=0
EDIFF = 0.1E-06
NELM=180
EDIFFG = -0.001
Prec=Accurate
ALGO =Normal
#IALGO=38
LORBIT=11
LCHARG=.TRUE.
LWAVE=.TRUE.
LREAL= Auto
LDAU= .TRUE.
LDAUTYPE=2
LDAUL=2 0
LDAUU= 6.2 0
LDAUJ=0 0
LMAXMIX= 4
LDAUPRINT=0
