Si1                                     
   1.00000000000000     
     2.4162394810033931   -0.0000000119731116    1.3950153188689092
     0.8054131490461052    2.2780521828932399    1.3950153188689132
    -0.0000000338651019   -0.0000000239462407    2.7900327550499728
   Si
     1
Direct
 -0.0000000000000000 -0.0000000000000000 -0.0000000000000000
 
  0.00000000E+00  0.00000000E+00  0.00000000E+00
