Si1                                     
   1.00000000000000     
     2.3665143666756907   -0.0000000033251512    1.3663065546198367
     0.7888381190902471    2.2311709072555255    1.3663065546198379
    -0.0000000094049557   -0.0000000066503072    2.7326151418193962
   Si
     1
Direct
 -0.0000000000000000  0.0000000000000000 -0.0000000000000000
 
  0.00000000E+00  0.00000000E+00  0.00000000E+00
