Si2                                     
   1.00000000000000     
     3.3504853015598552    0.0000000000000000    1.9344033177653455
     1.1168284338532852    3.1588690896186273    1.9344033177653455
     0.0000000000000000    0.0000000000000000    3.8688066355306909
   Si
     2
Direct
  0.8750000000000000  0.8750000000000000  0.8750000000000000
  0.1250000000000000  0.1250000000000000  0.1250000000000000
 
  0.00000000E+00  0.00000000E+00  0.00000000E+00
  0.00000000E+00  0.00000000E+00  0.00000000E+00
