Si1                                     
   1.00000000000000     
     2.3564133613428093   -0.0000000015684314    1.3604747453882033
     0.7854711189688716    2.2216475904842854    1.3604747453882040
    -0.0000000044361976   -0.0000000031368651    2.7209515061438467
   Si
     1
Direct
  0.0000000000000000  0.0000000000000000 -0.0000000000000000
 
  0.00000000E+00  0.00000000E+00  0.00000000E+00
