Si2                                     
   1.00000000000000     
     3.3481336251163580   -0.0000000000000000    1.9330455773067616
     1.1160445417054528    3.1566519051914890    1.9330455773067616
     0.0000000000000000   -0.0000000000000000    3.8660911546135233
   Si
     2
Direct
  0.8750000000000000  0.8750000000000000  0.8750000000000000
  0.1250000000000000  0.1250000000000000  0.1250000000000000
 
  0.00000000E+00  0.00000000E+00  0.00000000E+00
  0.00000000E+00  0.00000000E+00  0.00000000E+00
