Si1                                     
   1.01500000000000     
     1.5159268853342289    1.5159268853342289    1.5159268853342289
     1.5159268853342289   -1.5159268853342289   -1.5159268853342289
    -1.5159268853342289    1.5159268853342289   -1.5159268853342289
   Si
     1
Direct
 -0.0000000000000000  0.0000000000000000  0.0000000000000000
 
  0.00000000E+00  0.00000000E+00  0.00000000E+00
