Si2                                     
   1.00000000000000     
     3.3486456533674023    0.0000000000000000    1.9333411968314216
     1.1162152177891340    3.1571346506251170    1.9333411968314216
    -0.0000000000000000   -0.0000000000000000    3.8666823936628432
   Si
     2
Direct
  0.8750000000000000  0.8750000000000000  0.8750000000000000
  0.1250000000000000  0.1250000000000000  0.1250000000000000
 
  0.00000000E+00  0.00000000E+00  0.00000000E+00
  0.00000000E+00  0.00000000E+00  0.00000000E+00
