Si1                                     
   1.00000000000000     
     2.3653391428882653   -0.0000000031207618    1.3656280398872058
     0.7884463780204722    2.2300628959204243    1.3656280398872069
    -0.0000000088268546   -0.0000000062415281    2.7312581103515332
   Si
     1
Direct
  0.0000000000000000 -0.0000000000000000  0.0000000000000000
 
  0.00000000E+00  0.00000000E+00  0.00000000E+00
