Si2                                     
   1.00000000000000     
     3.3480447375381641   -0.0000000000000000    1.9329942580610748
     1.1160149125127214    3.1565681010803055    1.9329942580610748
     0.0000000000000000    0.0000000000000000    3.8659885161221497
   Si
     2
Direct
  0.8750000000000000  0.8750000000000000  0.8750000000000000
  0.1250000000000000  0.1250000000000000  0.1250000000000000
 
  0.00000000E+00  0.00000000E+00  0.00000000E+00
  0.00000000E+00  0.00000000E+00  0.00000000E+00
