Si1                                     
   1.00000000000000     
     1.5411880217685014    1.5411880217685014    1.5411880217685012
     1.5411880217685014   -1.5411880217685014   -1.5411880217685012
    -1.5411880217685012    1.5411880217685014   -1.5411880217685014
   Si
     1
Direct
 -0.0000000000000000  0.0000000000000000 -0.0000000000000000
 
  0.00000000E+00  0.00000000E+00  0.00000000E+00
