System=bulk_NiO
ISTART=0
ICHARG=2
ISMEAR =0
SIGMA = 0.05
ENCUT= 500
#ISIF=3
IBRION =-1
ISPIN=2
MAGMOM= 3 -3 -3 3 4*0
NSW=0
Prec=Accurate
ALGO =Normal
EDIFF = 0.1E-05
EDIFFG = -0.001
LORBIT=11
LMAXMIX=4 
LREAL= Auto
# GGA +U
LDAU= .TRUE.
LDAUTYPE=2
LDAUL=2 0
LDAUU=6.2 0
LDAUJ=0 0
LDAUPRINT=0

