Si1                                     
   1.00000000000000     
     2.3701086870882198   -0.0000000039502587    1.3683817333047741
     0.7900362253050665    2.2345596641898893    1.3683817333047754
    -0.0000000111730281   -0.0000000079005231    2.7367655053140534
   Si
     1
Direct
 -0.0000000000000000  0.0000000000000000 -0.0000000000000000
 
  0.00000000E+00  0.00000000E+00  0.00000000E+00
