Ni4 O4                                  
1.0
        4.1760001183         0.0000000000         0.0000000000
        0.0000000000         4.1760001183         0.0000000000
        0.0000000000         0.0000000000         8.3520002365
   Ni    O
    8    8
Direct
     0.000000000         0.000000000         0.000000000
     0.000000000         0.000000000         0.500000000
     0.000000000         0.500000000         0.250000000
     0.000000000         0.500000000         0.750000000
     0.500000000         0.000000000         0.250000000
     0.500000000         0.000000000         0.750000000
     0.500000000         0.500000000         0.000000000
     0.500000000         0.500000000         0.500000000
     0.500000000         0.000000000         0.000000000
     0.500000000         0.000000000         0.500000000
     0.500000000         0.500000000         0.250000000
     0.500000000         0.500000000         0.750000000
     0.000000000         0.000000000         0.250000000
     0.000000000         0.000000000         0.750000000
     0.000000000         0.500000000         0.000000000
     0.000000000         0.500000000         0.500000000
