Si1                                     
   1.00000000000000     
     2.3671183244658458   -0.0000000034301887    1.3666552492794344
     0.7890394382546020    2.2317403239781743    1.3666552492794357
    -0.0000000097020470   -0.0000000068603825    2.7333125321677461
   Si
     1
Direct
  0.0000000000000000  0.0000000000000000 -0.0000000000000000
 
  0.00000000E+00  0.00000000E+00  0.00000000E+00
