Si1                                     
   1.00000000000000     
     1.5394740186619189    1.5394740186619189    1.5394740186619189
     1.5394740186619189   -1.5394740186619189   -1.5394740186619189
    -1.5394740186619189    1.5394740186619191   -1.5394740186619189
   Si
     1
Direct
  0.0000000000000000  0.0000000000000000  0.0000000000000000
 
  0.00000000E+00  0.00000000E+00  0.00000000E+00
