Global Parameters
ISTART =  0            (Read existing wavefunction, if there)
ISPIN  =  2            (Non-Spin polarised DFT)
MAGMOM =  5 5          (Set this parameters manually)
GGA_COMPAT = .FALSE.   (Apply spherical cutoff on gradient field)
VOSKOWN    =  1        (Enhances the magnetic moments and the magnetic energies)
LMAXMIX    =  4        (For d elements increase LMAXMIX to 4, f: LMAXMIX = 6)
LREAL  = .FALSE.       (Projection operators: automatic)
ENCUT  =  350          (Cut-off energy for plane wave basis set, in eV)
#LWAVE  = .TRUE.       (Write WAVECAR or not)
#LCHARG = .TRUE.       (Write CHGCAR or not)
LORBIT =  11           (Write orbital decomposed charge densities and magnetic moments)
ADDGRID= .TRUE.        (Increase grid, helps GGA convergence)
LASPH  = .TRUE.        (Give more accurate total energies and band structure calculations)
PREC   = Accurate      (Accurate strictly avoids any aliasing or wrap around errors)
KSPACING = 0.16
 
Electronic Relaxation
ISMEAR =  1            (Gaussian smearing, metals:1)
SIGMA  =  0.2          (Smearing value in eV, metals:0.2)
NELM   =  90           (Max electronic SCF steps)
NELMIN =  6            (Min electronic SCF steps)
EDIFF  =  1E-06        (SCF energy convergence, in eV)
 
Ionic Relaxation
NSW    =  100          (Max ionic steps)
IBRION =  2            (Algorithm: 0-MD, 1-Quasi-New, 2-CG)
ISIF   =  3            (Stress/relaxation: 2-Ions, 3-Shape/Ions/V, 4-Shape/Ions)
EDIFFG = -2E-03        (Ionic convergence, eV/AA)
ISYM =  2              (Symmetry: 0=none, 2=GGA, 3=hybrids)
