Si2                                     
   1.00000000000000     
     3.3481343595453925   -0.0000000000000000    1.9330460013293846
     1.1160447865151308    3.1566525976186388    1.9330460013293846
     0.0000000000000000    0.0000000000000000    3.8660920026587693
   Si
     2
Direct
  0.8750000000000000  0.8750000000000000  0.8750000000000000
  0.1250000000000000  0.1250000000000000  0.1250000000000000
 
  0.00000000E+00  0.00000000E+00  0.00000000E+00
  0.00000000E+00  0.00000000E+00  0.00000000E+00
