Automatic
 0
Monkhorst
14 14 14
0. 0. 0.
