K-Path Generated by VASPKIT.
   20
Line-Mode
Reciprocal
   0.0000000000   0.0000000000   0.0000000000     GAMMA          
   0.5000000000  -0.5000000000   0.5000000000     H              
 
   0.5000000000  -0.5000000000   0.5000000000     H              
   0.0000000000   0.0000000000   0.5000000000     N              
 
   0.0000000000   0.0000000000   0.5000000000     N              
   0.0000000000   0.0000000000   0.0000000000     GAMMA          
 
   0.0000000000   0.0000000000   0.0000000000     GAMMA          
   0.2500000000   0.2500000000   0.2500000000     P              
 
   0.2500000000   0.2500000000   0.2500000000     P              
   0.5000000000  -0.5000000000   0.5000000000     H              
 
   0.2500000000   0.2500000000   0.2500000000     P              
   0.0000000000   0.0000000000   0.5000000000     N              
 
