Generated by VASPKIT code
 1.000000
   -1.4150063866240050    1.4150063866240050    1.4150063866240050
    1.4150063866240050   -1.4150063866240050    1.4150063866240050
    1.4150063866240050    1.4150063866240050   -1.4150063866240050
   Fe
     1
Direct
    0.0000000000000000    0.0000000000000000    0.0000000000000000    Fe001
