Si1                                     
   1.00000000000000     
     2.3685476983388329   -0.0000000036787788    1.3674804974080348
     0.7895158959778914    2.2330879502518362    1.3674804974080361
    -0.0000000104051664   -0.0000000073575630    2.7349630308606239
   Si
     1
Direct
 -0.0000000000000000  0.0000000000000000  0.0000000000000000
 
  0.00000000E+00  0.00000000E+00  0.00000000E+00
