Automatic
 0
Monkhorst
<k> <k> <k>
0. 0. 0.
