Si1                                     
   1.00000000000000     
     1.5406297684542192    1.5406297684542190    1.5406297684542192
     1.5406297684542192   -1.5406297684542190   -1.5406297684542192
    -1.5406297684542192    1.5406297684542192   -1.5406297684542192
   Si
     1
Direct
  0.0000000000000000  0.0000000000000000  0.0000000000000000
 
  0.00000000E+00  0.00000000E+00  0.00000000E+00
