Si2                                     
   1.00000000000000     
     3.3481329252964498    0.0000000000000000    1.9330451732657186
     1.1160443084321499    3.1566512453941740    1.9330451732657186
    -0.0000000000000000    0.0000000000000000    3.8660903465314371
   Si
     2
Direct
  0.8750000000000000  0.8750000000000000  0.8750000000000000
  0.1250000000000000  0.1250000000000000  0.1250000000000000
 
  0.00000000E+00  0.00000000E+00  0.00000000E+00
  0.00000000E+00  0.00000000E+00  0.00000000E+00
