Si1                                     
   1.00000000000000     
     2.3675332305485619   -0.0000000035023473    1.3668947950517318
     0.7891777402141422    2.2321315010863736    1.3668947950517329
    -0.0000000099061423   -0.0000000070046997    2.7337916244193479
   Si
     1
Direct
  0.0000000000000000  0.0000000000000000  0.0000000000000000
 
  0.00000000E+00  0.00000000E+00  0.00000000E+00
