Si1
1.000
   1.5133256300000000    1.5133256300000000    1.5133256300000000
   1.5133256300000000   -1.5133256300000000   -1.5133256300000000
  -1.5133256300000000    1.5133256300000000   -1.5133256300000000
Si
1
direct
   0.0000000000000000    0.0000000000000000    0.0000000000000000 Si
