Si2                                     
   1.00000000000000     
     3.3465501373687010    0.0000000000000000    1.9321313506126045
     1.1155167124562337    3.1551589768660904    1.9321313506126045
     0.0000000000000000    0.0000000000000000    3.8642627012252091
   Si
     2
Direct
  0.8750000000000000  0.8750000000000000  0.8750000000000000
  0.1250000000000000  0.1250000000000000  0.1250000000000000
 
  0.00000000E+00  0.00000000E+00  0.00000000E+00
  0.00000000E+00  0.00000000E+00  0.00000000E+00
