generated by phonopy
   1.0
     2.8630354989499160    0.0000000000000000    0.0000000000000002
     0.0000000000000005    2.8630354989499160    0.0000000000000002
     0.0000000000000000    0.0000000000000000    5.7260709978998321
Fe
   4
Direct
  0.0000000000000000  0.0000000000000000  0.0000000000000000
  0.0000000000000000  0.0000000000000000  0.5000000000000000
  0.5000000000000000  0.5000000000000000  0.2500000000000000
  0.5000000000000000  0.5000000000000000  0.7500000000000000
