Si2                                     
   1.00000000000000     
     3.3487235773517221    0.0000000000000000    1.9333861862458872
     1.1162411924505742    3.1572081181486844    1.9333861862458872
     0.0000000000000000    0.0000000000000000    3.8667723724917744
   Si
     2
Direct
  0.8750000000000000  0.8750000000000000  0.8750000000000000
  0.1250000000000000  0.1250000000000000  0.1250000000000000
 
  0.00000000E+00  0.00000000E+00  0.00000000E+00
  0.00000000E+00  0.00000000E+00  0.00000000E+00
