Si2                                     
   1.00000000000000     
     3.3481330767651216    0.0000000000000000    1.9330452607161606
     1.1160443589217073    3.1566513882003759    1.9330452607161606
    -0.0000000000000000    0.0000000000000000    3.8660905214323211
   Si
     2
Direct
  0.8750000000000000  0.8750000000000000  0.8750000000000000
  0.1250000000000000  0.1250000000000000  0.1250000000000000
 
  0.00000000E+00  0.00000000E+00  0.00000000E+00
  0.00000000E+00  0.00000000E+00  0.00000000E+00
