Si2                                     
   1.00000000000000     
     3.3481404767032656    0.0000000000000000    1.9330495330706490
     1.1160468255677551    3.1566583649371882    1.9330495330706490
    -0.0000000000000000    0.0000000000000000    3.8660990661412979
   Si
     2
Direct
  0.8750000000000000  0.8750000000000000  0.8750000000000000
  0.1250000000000000  0.1250000000000000  0.1250000000000000
 
  0.00000000E+00  0.00000000E+00  0.00000000E+00
  0.00000000E+00  0.00000000E+00  0.00000000E+00
