Si1                                     
   1.00000000000000     
     2.3656020177679800   -0.0000000031664798    1.3657798105377266
     0.7885340029372738    2.2303107366717381    1.3657798105377277
    -0.0000000089561647   -0.0000000063329641    2.7315616521005182
   Si
     1
Direct
  0.0000000000000000 -0.0000000000000000  0.0000000000000000
 
  0.00000000E+00  0.00000000E+00  0.00000000E+00
