Si1                                     
   1.00000000000000     
     1.5410753300516264    1.5410753300516264    1.5410753300516264
     1.5410753300516264   -1.5410753300516264   -1.5410753300516264
    -1.5410753300516264    1.5410753300516264   -1.5410753300516264
   Si
     1
Direct
  0.0000000000000000  0.0000000000000000  0.0000000000000000
 
  0.00000000E+00  0.00000000E+00  0.00000000E+00
