Si2                                     
   1.00000000000000     
     3.3481333509393258   -0.0000000000000000    1.9330454190106445
     1.1160444503131086    3.1566516466945989    1.9330454190106445
     0.0000000000000000   -0.0000000000000000    3.8660908380212891
   Si
     2
Direct
  0.8750000000000000  0.8750000000000000  0.8750000000000000
  0.1250000000000000  0.1250000000000000  0.1250000000000000
 
  0.00000000E+00  0.00000000E+00  0.00000000E+00
  0.00000000E+00  0.00000000E+00  0.00000000E+00
