Si1                                     
   1.00000000000000     
     2.3682412574248133   -0.0000000036254840    1.3673035739343373
     0.7894137490567983    2.2327990350597635    1.3673035739343384
    -0.0000000102544259   -0.0000000072509733    2.7346091833910480
   Si
     1
Direct
 -0.0000000000000000 -0.0000000000000000  0.0000000000000000
 
  0.00000000E+00  0.00000000E+00  0.00000000E+00
