Si2                                     
   1.00000000000000     
     3.3481333393147206    0.0000000000000000    1.9330454122991785
     1.1160444464382402    3.1566516357348031    1.9330454122991785
    -0.0000000000000000    0.0000000000000000    3.8660908245983570
   Si
     2
Direct
  0.8750000000000000  0.8750000000000000  0.8750000000000000
  0.1250000000000000  0.1250000000000000  0.1250000000000000
 
  0.00000000E+00  0.00000000E+00  0.00000000E+00
  0.00000000E+00  0.00000000E+00  0.00000000E+00
