Si1                                     
   1.00000000000000     
     2.3672699972801783   -0.0000000034565669    1.3667428174857328
     0.7890899958345098    2.2318833224430663    1.3667428174857339
    -0.0000000097766559   -0.0000000069131389    2.7334876688387957
   Si
     1
Direct
 -0.0000000000000000 -0.0000000000000000  0.0000000000000000
 
  0.00000000E+00  0.00000000E+00  0.00000000E+00
