Si1                                     
   1.00000000000000     
     1.5383184987360004    1.5383184987360001    1.5383184987360004
     1.5383184987360004   -1.5383184987360004   -1.5383184987360004
    -1.5383184987360004    1.5383184987360004   -1.5383184987360001
   Si
     1
Direct
 -0.0000000000000000  0.0000000000000000 -0.0000000000000000
 
  0.00000000E+00  0.00000000E+00  0.00000000E+00
