Si2                                     
   1.00000000000000     
     3.3488754160309360    0.0000000000000000    1.9334738503114590
     1.1162918053436455    3.1573512731970421    1.9334738503114590
    -0.0000000000000000    0.0000000000000000    3.8669477006229180
   Si
     2
Direct
  0.8750000000000000  0.8750000000000000  0.8750000000000000
  0.1250000000000000  0.1250000000000000  0.1250000000000000
 
  0.00000000E+00  0.00000000E+00  0.00000000E+00
  0.00000000E+00  0.00000000E+00  0.00000000E+00
