Si1                                     
   1.02000000000000     
     1.5133256300000000    1.5133256300000000    1.5133256300000000
     1.5133256300000000   -1.5133256300000000   -1.5133256300000000
    -1.5133256300000000    1.5133256300000000   -1.5133256300000000
   Si
     1
Direct
  0.0000000000000000  0.0000000000000000  0.0000000000000000
 
  0.00000000E+00  0.00000000E+00  0.00000000E+00
