Si2                                     
   1.00000000000000     
     3.3481335596142641    0.0000000000000000    1.9330455394891257
     1.1160445198714213    3.1566518434354496    1.9330455394891257
     0.0000000000000000   -0.0000000000000000    3.8660910789782514
   Si
     2
Direct
  0.8750000000000000  0.8750000000000000  0.8750000000000000
  0.1250000000000000  0.1250000000000000  0.1250000000000000
 
  0.00000000E+00  0.00000000E+00  0.00000000E+00
  0.00000000E+00  0.00000000E+00  0.00000000E+00
