Automatic
 0
Monkhorst
18 18 18
0. 0. 0.
