Si1                                     
   1.00000000000000     
     2.3672505754016497   -0.0000000034531893    1.3667316042760804
     0.7890835218781849    2.2318650113249725    1.3667316042760815
    -0.0000000097671022   -0.0000000069063835    2.7334652423863957
   Si
     1
Direct
 -0.0000000000000000 -0.0000000000000000  0.0000000000000000
 
  0.00000000E+00  0.00000000E+00  0.00000000E+00
