Si1                                     
   1.00000000000000     
     2.3670564655829849   -0.0000000034194306    1.3666195350913672
     0.7890188186371246    2.2316820028787205    1.3666195350913684
    -0.0000000096716181   -0.0000000068388661    2.7332411036862028
   Si
     1
Direct
 -0.0000000000000000 -0.0000000000000000  0.0000000000000000
 
  0.00000000E+00  0.00000000E+00  0.00000000E+00
