Fe2                                     
   1.00000000000000     
     2.8011938912592540   -0.0000000000000000    0.0000000000000002
     0.0000000000000005    2.8011938912592540    0.0000000000000002
    -0.0000000000000000   -0.0000000000000000    2.8011938912592540
   Fe
     2
Direct
  0.0000000000000000  0.0000000000000000 -0.0000000000000000
  0.5000000000000000  0.5000000000000000  0.5000000000000000
 
  0.00000000E+00  0.00000000E+00  0.00000000E+00
  0.00000000E+00  0.00000000E+00  0.00000000E+00
