Si1                                     
   1.00000000000000     
     2.3671118697615370   -0.0000000034290662    1.3666515226598619
     0.7890372866875572    2.2317342384261152    1.3666515226598630
    -0.0000000096988719   -0.0000000068581373    2.7333050789176014
   Si
     1
Direct
  0.0000000000000000  0.0000000000000000 -0.0000000000000000
 
  0.00000000E+00  0.00000000E+00  0.00000000E+00
