Si1                                     
   1.01000000000000     
     2.3453415830298248    0.0000000003571207    1.3540824609721094
     0.7817805280133047    2.2112090203993588    1.3540824609721092
     0.0000000010100908    0.0000000007142419    2.7081669184451616
   Si
     1
Direct
  0.0000000000000000  0.0000000000000000  0.0000000000000000
 
  0.00000000E+00  0.00000000E+00  0.00000000E+00
