Si1                                     
   1.00000000000000     
     2.3682764609287053   -0.0000000036316065    1.3673238986557108
     0.7894254835523233    2.2328322252332136    1.3673238986557119
    -0.0000000102717428   -0.0000000072632182    2.7346498328937825
   Si
     1
Direct
  0.0000000000000000  0.0000000000000000 -0.0000000000000000
 
  0.00000000E+00  0.00000000E+00  0.00000000E+00
