Si1                                     
   1.00000000000000     
     1.5374071027125962    1.5374071027125962    1.5374071027125962
     1.5374071027125962   -1.5374071027125962   -1.5374071027125962
    -1.5374071027125962    1.5374071027125962   -1.5374071027125962
   Si
     1
Direct
  0.0000000000000000  0.0000000000000000  0.0000000000000000
 
  0.00000000E+00  0.00000000E+00  0.00000000E+00
