Si1                                     
   1.00000000000000     
     2.3671597748842990   -0.0000000034373976    1.3666791806530971
     0.7890532550539564    2.2317794037976793    1.3666791806530982
    -0.0000000097224368   -0.0000000068748002    2.7333603949857035
   Si
     1
Direct
 -0.0000000000000000  0.0000000000000000 -0.0000000000000000
 
  0.00000000E+00  0.00000000E+00  0.00000000E+00
