Si1                                     
   1.00000000000000     
     2.3672125763194924   -0.0000000034465806    1.3667096655293107
     0.7890708555236965    2.2318291854557173    1.3667096655293118
    -0.0000000097484101   -0.0000000068931662    2.7334213648281049
   Si
     1
Direct
  0.0000000000000000 -0.0000000000000000 -0.0000000000000000
 
  0.00000000E+00  0.00000000E+00  0.00000000E+00
