Si2                                     
   1.00000000000000     
     3.3487774021290773    0.0000000000000000    1.9334172619812007
     1.1162591340430259    3.1572588647014741    1.9334172619812007
     0.0000000000000000    0.0000000000000000    3.8668345239624013
   Si
     2
Direct
  0.8750000000000000  0.8750000000000000  0.8750000000000000
  0.1250000000000000  0.1250000000000000  0.1250000000000000
 
  0.00000000E+00  0.00000000E+00  0.00000000E+00
  0.00000000E+00  0.00000000E+00  0.00000000E+00
