Si2                                     
   0.990     
     3.3481333901205397    0.0000000000000000    1.9330454416319196
     1.1160444633735134    3.1566516836350456    1.9330454416319196
    -0.0000000000000000   -0.0000000000000000    3.8660908832638392
   Si
     2
Direct
  0.8750000000000000  0.8750000000000000  0.8750000000000000
  0.1250000000000000  0.1250000000000000  0.1250000000000000
 
  0.00000000E+00  0.00000000E+00  0.00000000E+00
  0.00000000E+00  0.00000000E+00  0.00000000E+00
