Si1                                     
   1.00000000000000     
     2.3696969344581555   -0.0000000038786486    1.3681440081764307
     0.7898989744958932    2.2341714601846179    1.3681440081764320
    -0.0000000109704840   -0.0000000077573028    2.7362900543557336
   Si
     1
Direct
  0.0000000000000000 -0.0000000000000000  0.0000000000000000
 
  0.00000000E+00  0.00000000E+00  0.00000000E+00
