Si2                                     
   1.00000000000000     
     3.3481345110131469   -0.0000000000000000    1.9330460887792968
     1.1160448370043823    3.1566527404239757    1.9330460887792968
     0.0000000000000000    0.0000000000000000    3.8660921775585937
   Si
     2
Direct
  0.8750000000000000  0.8750000000000000  0.8750000000000000
  0.1250000000000000  0.1250000000000000  0.1250000000000000
 
  0.00000000E+00  0.00000000E+00  0.00000000E+00
  0.00000000E+00  0.00000000E+00  0.00000000E+00
