Automatic
 0
Monkhorst
17 17 17
0. 0. 0.
