Si2                                     
   1.00000000000000     
     3.3488595881102361   -0.0000000000000000    1.9334647120610127
     1.1162865293700788    3.1573363504727077    1.9334647120610127
     0.0000000000000000   -0.0000000000000000    3.8669294241220253
   Si
     2
Direct
  0.8750000000000000  0.8750000000000000  0.8750000000000000
  0.1250000000000000  0.1250000000000000  0.1250000000000000
 
  0.00000000E+00  0.00000000E+00  0.00000000E+00
  0.00000000E+00  0.00000000E+00  0.00000000E+00
