Si2                                     
   1.00000000000000     
     3.3471386258048064   -0.0000000000000000    1.9324711144271880
     1.1157128752682688    3.1557138097384829    1.9324711144271880
     0.0000000000000000    0.0000000000000000    3.8649422288543760
   Si
     2
Direct
  0.8750000000000000  0.8750000000000000  0.8750000000000000
  0.1250000000000000  0.1250000000000000  0.1250000000000000
 
  0.00000000E+00  0.00000000E+00  0.00000000E+00
  0.00000000E+00  0.00000000E+00  0.00000000E+00
