Si1                                     
   1.00000000000000     
     2.3691969427687365   -0.0000000037916923    1.3678553382813063
     0.7897323106814033    2.2337000636172069    1.3678553382813077
    -0.0000000107245345   -0.0000000075833903    2.7357127137134905
   Si
     1
Direct
 -0.0000000000000000 -0.0000000000000000  0.0000000000000000
 
  0.00000000E+00  0.00000000E+00  0.00000000E+00
