Si1                                     
   1.00000000000000     
     1.5389461495842811    1.5389461495842811    1.5389461495842811
     1.5389461495842811   -1.5389461495842811   -1.5389461495842811
    -1.5389461495842811    1.5389461495842811   -1.5389461495842811
   Si
     1
Direct
  0.0000000000000000  0.0000000000000000 -0.0000000000000000
 
  0.00000000E+00  0.00000000E+00  0.00000000E+00
