Si2                                     
   1.00000000000000     
     3.3481236696116774   -0.0000000000000000    1.9330398294958637
     1.1160412232038925    3.1566425190405996    1.9330398294958637
     0.0000000000000000   -0.0000000000000000    3.8660796589917275
   Si
     2
Direct
  0.8750000000000000  0.8750000000000000  0.8750000000000000
  0.1250000000000000  0.1250000000000000  0.1250000000000000
 
  0.00000000E+00  0.00000000E+00  0.00000000E+00
  0.00000000E+00  0.00000000E+00  0.00000000E+00
