Si1                                     
   1.02000000000000     
     2.3473950000000001    0.0000000000000000    1.3552679999999999
     0.7824650000000000    2.2131449999999999    1.3552679999999999
     0.0000000000000000    0.0000000000000000    2.7105380000000001
   Si
     1
Direct
  0.0000000000000000  0.0000000000000000  0.0000000000000000
 
  0.00000000E+00  0.00000000E+00  0.00000000E+00
