Si1                                     
   1.00000000000000     
     2.3705621931413279   -0.0000000040291303    1.3686435647462949
     0.7901873939150750    2.2349872336900622    1.3686435647462964
    -0.0000000113961111   -0.0000000080582666    2.7372891689698773
   Si
     1
Direct
  0.0000000000000000  0.0000000000000000 -0.0000000000000000
 
  0.00000000E+00  0.00000000E+00  0.00000000E+00
