Generated by VASPKIT code               
   1.00000000000000     
    -1.4150063866240050    1.4150063866240050    1.4150063866240050
     1.4150063866240050   -1.4150063866240050    1.4150063866240050
     1.4150063866240050    1.4150063866240050   -1.4150063866240050
   Fe
     1
Direct
  0.0000000000000000  0.0000000000000000  0.0000000000000000
 
  0.00000000E+00  0.00000000E+00  0.00000000E+00
