Si1                                     
   1.00000000000000     
     2.3753684610708170   -0.0000000048650141    1.3714184605865787
     0.7917894824368259    2.2395186254150996    1.3714184605865805
    -0.0000000137603493   -0.0000000097300353    2.7428389688404060
   Si
     1
Direct
 -0.0000000000000000 -0.0000000000000000  0.0000000000000000
 
  0.00000000E+00  0.00000000E+00  0.00000000E+00
