Si2                                     
   1.00000000000000     
     3.3481290387914830   -0.0000000000000000    1.9330429293919704
     1.1160430129304943    3.1566475811578325    1.9330429293919704
     0.0000000000000000    0.0000000000000000    3.8660858587839408
   Si
     2
Direct
  0.8750000000000000  0.8750000000000000  0.8750000000000000
  0.1250000000000000  0.1250000000000000  0.1250000000000000
 
  0.00000000E+00  0.00000000E+00  0.00000000E+00
  0.00000000E+00  0.00000000E+00  0.00000000E+00
