Automatic
 0
Monkhorst
13 13 13
0. 0. 0.
