Si2                                     
   1.00000000000000     
     3.3487121946025193    0.0000000000000000    1.9333796144153255
     1.1162373982008400    3.1571973863771690    1.9333796144153255
     0.0000000000000000    0.0000000000000000    3.8667592288306509
   Si
     2
Direct
  0.8750000000000000  0.8750000000000000  0.8750000000000000
  0.1250000000000000  0.1250000000000000  0.1250000000000000
 
  0.00000000E+00  0.00000000E+00  0.00000000E+00
  0.00000000E+00  0.00000000E+00  0.00000000E+00
