Si2                                     
   1.00000000000000     
     3.3481339383354047    0.0000000000000000    1.9330457581437870
     1.1160446461118017    3.1566522004975863    1.9330457581437870
     0.0000000000000000    0.0000000000000000    3.8660915162875740
   Si
     2
Direct
  0.8750000000000000  0.8750000000000000  0.8750000000000000
  0.1250000000000000  0.1250000000000000  0.1250000000000000
 
  0.00000000E+00  0.00000000E+00  0.00000000E+00
  0.00000000E+00  0.00000000E+00  0.00000000E+00
