Automatic
 0
Monkhorst
21 21 21
0. 0. 0.
