Si2                                     
   1.00000000000000     
     3.3487476837009322    0.0000000000000000    1.9334001040472588
     1.1162492279003109    3.1572308458594680    1.9334001040472588
     0.0000000000000000   -0.0000000000000000    3.8668002080945181
   Si
     2
Direct
  0.8750000000000000  0.8750000000000000  0.8750000000000000
  0.1250000000000000  0.1250000000000000  0.1250000000000000
 
  0.00000000E+00  0.00000000E+00  0.00000000E+00
  0.00000000E+00  0.00000000E+00  0.00000000E+00
