Si1                                     
   1.00000000000000     
     1.5397730974136428    1.5397730974136428    1.5397730974136428
     1.5397730974136428   -1.5397730974136428   -1.5397730974136428
    -1.5397730974136428    1.5397730974136428   -1.5397730974136428
   Si
     1
Direct
  0.0000000000000000  0.0000000000000000  0.0000000000000000
 
  0.00000000E+00  0.00000000E+00  0.00000000E+00
