Automatic
 0
Monkhorst
31 31 31
0. 0. 0.
