Si1                                     
   1.00000000000000     
     2.3683130069865608   -0.0000000036379623    1.3673449984997914
     0.7894376655656161    2.2328666811783626    1.3673449984997927
    -0.0000000102897200   -0.0000000072759300    2.7346920326442192
   Si
     1
Direct
  0.0000000000000000 -0.0000000000000000  0.0000000000000000
 
  0.00000000E+00  0.00000000E+00  0.00000000E+00
