Ni4 O4                                  
1.0
        8.3520002365         0.0000000000         0.0000000000
        0.0000000000         8.3520002365         0.0000000000
        0.0000000000         0.0000000000         8.3520002365
   Ni    O
   32   32
Direct
     0.000000000         0.000000000         0.000000000
     0.000000000         0.000000000         0.500000000
     0.000000000         0.500000000         0.000000000
     0.000000000         0.500000000         0.500000000
     0.500000000         0.000000000         0.000000000
     0.500000000         0.000000000         0.500000000
     0.500000000         0.500000000         0.000000000
     0.500000000         0.500000000         0.500000000
     0.000000000         0.250000000         0.250000000
     0.000000000         0.250000000         0.750000000
     0.000000000         0.750000000         0.250000000
     0.000000000         0.750000000         0.750000000
     0.500000000         0.250000000         0.250000000
     0.500000000         0.250000000         0.750000000
     0.500000000         0.750000000         0.250000000
     0.500000000         0.750000000         0.750000000
     0.250000000         0.000000000         0.250000000
     0.250000000         0.000000000         0.750000000
     0.250000000         0.500000000         0.250000000
     0.250000000         0.500000000         0.750000000
     0.750000000         0.000000000         0.250000000
     0.750000000         0.000000000         0.750000000
     0.750000000         0.500000000         0.250000000
     0.750000000         0.500000000         0.750000000
     0.250000000         0.250000000         0.000000000
     0.250000000         0.250000000         0.500000000
     0.250000000         0.750000000         0.000000000
     0.250000000         0.750000000         0.500000000
     0.750000000         0.250000000         0.000000000
     0.750000000         0.250000000         0.500000000
     0.750000000         0.750000000         0.000000000
     0.750000000         0.750000000         0.500000000
     0.250000000         0.000000000         0.000000000
     0.250000000         0.000000000         0.500000000
     0.250000000         0.500000000         0.000000000
     0.250000000         0.500000000         0.500000000
     0.750000000         0.000000000         0.000000000
     0.750000000         0.000000000         0.500000000
     0.750000000         0.500000000         0.000000000
     0.750000000         0.500000000         0.500000000
     0.250000000         0.250000000         0.250000000
     0.250000000         0.250000000         0.750000000
     0.250000000         0.750000000         0.250000000
     0.250000000         0.750000000         0.750000000
     0.750000000         0.250000000         0.250000000
     0.750000000         0.250000000         0.750000000
     0.750000000         0.750000000         0.250000000
     0.750000000         0.750000000         0.750000000
     0.000000000         0.000000000         0.250000000
     0.000000000         0.000000000         0.750000000
     0.000000000         0.500000000         0.250000000
     0.000000000         0.500000000         0.750000000
     0.500000000         0.000000000         0.250000000
     0.500000000         0.000000000         0.750000000
     0.500000000         0.500000000         0.250000000
     0.500000000         0.500000000         0.750000000
     0.000000000         0.250000000         0.000000000
     0.000000000         0.250000000         0.500000000
     0.000000000         0.750000000         0.000000000
     0.000000000         0.750000000         0.500000000
     0.500000000         0.250000000         0.000000000
     0.500000000         0.250000000         0.500000000
     0.500000000         0.750000000         0.000000000
     0.500000000         0.750000000         0.500000000
