Si1                                     
   1.00000000000000     
     1.5408317287392677    1.5408317287392677    1.5408317287392677
     1.5408317287392677   -1.5408317287392674   -1.5408317287392677
    -1.5408317287392677    1.5408317287392677   -1.5408317287392677
   Si
     1
Direct
  0.0000000000000000  0.0000000000000000 -0.0000000000000000
 
  0.00000000E+00  0.00000000E+00  0.00000000E+00
