Si2                                     
   1.00000000000000     
     3.3481345170336589   -0.0000000000000000    1.9330460922552395
     1.1160448390112196    3.1566527461001757    1.9330460922552395
     0.0000000000000000   -0.0000000000000000    3.8660921845104790
   Si
     2
Direct
  0.8750000000000000  0.8750000000000000  0.8750000000000000
  0.1250000000000000  0.1250000000000000  0.1250000000000000
 
  0.00000000E+00  0.00000000E+00  0.00000000E+00
  0.00000000E+00  0.00000000E+00  0.00000000E+00
