Si1                                     
   1.00000000000000     
     2.3667580066045879   -0.0000000033675239    1.3664472199833042
     0.7889193323599302    2.2314006131258370    1.3664472199833053
    -0.0000000095248040   -0.0000000067350528    2.7328964729614977
   Si
     1
Direct
  0.0000000000000000 -0.0000000000000000 -0.0000000000000000
 
  0.00000000E+00  0.00000000E+00  0.00000000E+00
