Si1                                     
   1.00000000000000     
     2.3664022666271545   -0.0000000033056553    1.3662418337255915
     0.7888007524257827    2.2310652183426796    1.3662418337255926
    -0.0000000093498129   -0.0000000066113154    2.7324856998398852
   Si
     1
Direct
 -0.0000000000000000  0.0000000000000000 -0.0000000000000000
 
  0.00000000E+00  0.00000000E+00  0.00000000E+00
