Si1                                     
   1.00000000000000     
     2.3671152337367292   -0.0000000034296512    1.3666534648488753
     0.7890384080120698    2.2317374100115477    1.3666534648488764
    -0.0000000097005266   -0.0000000068593074    2.7333089633013605
   Si
     1
Direct
 -0.0000000000000000  0.0000000000000000 -0.0000000000000000
 
  0.00000000E+00  0.00000000E+00  0.00000000E+00
