Si1                                     
   1.00000000000000     
     1.5380139268437700    1.5380139268437700    1.5380139268437700
     1.5380139268437700   -1.5380139268437700   -1.5380139268437700
    -1.5380139268437700    1.5380139268437700   -1.5380139268437700
   Si
     1
Direct
  0.0000000000000000 -0.0000000000000000 -0.0000000000000000
 
  0.00000000E+00  0.00000000E+00  0.00000000E+00
