Si2                                     
   1.00000000000000     
     3.3488132277084737    0.0000000000000000    1.9334379458817947
     1.1162710759028247    3.1572926414152360    1.9334379458817947
     0.0000000000000000    0.0000000000000000    3.8668758917635895
   Si
     2
Direct
  0.8750000000000000  0.8750000000000000  0.8750000000000000
  0.1250000000000000  0.1250000000000000  0.1250000000000000
 
  0.00000000E+00  0.00000000E+00  0.00000000E+00
  0.00000000E+00  0.00000000E+00  0.00000000E+00
