Si2                                     
   1.00000000000000     
     3.3483563704138688    0.0000000000000000    1.9331741793103350
     1.1161187901379563    3.1568619117194809    1.9331741793103350
    -0.0000000000000000   -0.0000000000000000    3.8663483586206699
   Si
     2
Direct
  0.8750000000000000  0.8750000000000000  0.8750000000000000
  0.1250000000000000  0.1250000000000000  0.1250000000000000
 
  0.00000000E+00  0.00000000E+00  0.00000000E+00
  0.00000000E+00  0.00000000E+00  0.00000000E+00
