ISTART=0
ISMEAR = 1
SIGMA = 0.2
ENCUT = 500
ISPIN=2
MAGMOM = 2.2 0 0 2.2 0 0
SAXIS= 0 0 1
EDIFF = 1E-05
LORBIT = 11
LSORBIT = .True.
LWAVE = .False.
LCHARG= .False.
LORBMOM = T
LNONCOLLINEAR = .TRUE.
LMAXMIX = 4
ISYM = 0
PREC = Accurate
NPAR = 4
NBANDS = 32
GGA_COMPAT=.FALSE.

