Fe_bcc                                  
   1.00000000000000     
     2.8323863912026797   -0.0000000000000000    0.0000000000000002
     0.0000000000000005    2.8323863912026797    0.0000000000000002
     0.0000000000000000    0.0000000000000000    2.8323863912026797
   Fe
     2
Direct
 -0.0000000000000000  0.0000000000000000 -0.0000000000000000
  0.5000000000000000  0.5000000000000000  0.5000000000000000
 
  0.00000000E+00  0.00000000E+00  0.00000000E+00
  0.00000000E+00  0.00000000E+00  0.00000000E+00
