Si1                                     
   1.00000000000000     
     2.3704124515603238   -0.0000000040030880    1.3685571115363737
     0.7901374800792932    2.2348460560089567    1.3685571115363750
    -0.0000000113224521   -0.0000000080061818    2.7371162622948724
   Si
     1
Direct
  0.0000000000000000  0.0000000000000000 -0.0000000000000000
 
  0.00000000E+00  0.00000000E+00  0.00000000E+00
