Automatic
 0
Monkhorst
19 19 19
0. 0. 0.
