Si1                                     
   1.00000000000000     
     2.3769127099593961   -0.0000000051335827    1.3723100317349513
     0.7923042318131432    2.2409745568649817    1.3723100317349530
    -0.0000000145199766   -0.0000000102671728    2.7446221137685773
   Si
     1
Direct
  0.0000000000000000  0.0000000000000000 -0.0000000000000000
 
  0.00000000E+00  0.00000000E+00  0.00000000E+00
