Si1                                     
   1.00000000000000     
     2.3671730560823270   -0.0000000034397073    1.3666868485446300
     0.7890576821177880    2.2317919254281264    1.3666868485446313
    -0.0000000097289699   -0.0000000068794198    2.7333757307914008
   Si
     1
Direct
  0.0000000000000000  0.0000000000000000 -0.0000000000000000
 
  0.00000000E+00  0.00000000E+00  0.00000000E+00
