Si1                                     
   1.00000000000000     
     2.3659036197782770   -0.0000000032189330    1.3659539402733285
     0.7886345368912528    2.2305950897027724    1.3659539402733296
    -0.0000000091045249   -0.0000000064378706    2.7319099120856571
   Si
     1
Direct
  0.0000000000000000 -0.0000000000000000 -0.0000000000000000
 
  0.00000000E+00  0.00000000E+00  0.00000000E+00
