Si2                                     
   1.00000000000000     
     3.3473368048318779   -0.0000000000000000    1.9325855330938555
     1.1157789349439595    3.1559006549372874    1.9325855330938555
    -0.0000000000000000    0.0000000000000000    3.8651710661877110
   Si
     2
Direct
  0.8750000000000000  0.8750000000000000  0.8750000000000000
  0.1250000000000000  0.1250000000000000  0.1250000000000000
 
  0.00000000E+00  0.00000000E+00  0.00000000E+00
  0.00000000E+00  0.00000000E+00  0.00000000E+00
