Si2                                     
   1.00000000000000     
     3.3481137659802171   -0.0000000000000000    1.9330341116339711
     1.1160379219934058    3.1566331817963085    1.9330341116339711
    -0.0000000000000000   -0.0000000000000000    3.8660682232679422
   Si
     2
Direct
  0.8750000000000000  0.8750000000000000  0.8750000000000000
  0.1250000000000000  0.1250000000000000  0.1250000000000000
 
  0.00000000E+00  0.00000000E+00  0.00000000E+00
  0.00000000E+00  0.00000000E+00  0.00000000E+00
